#################################################################
#		General system descritprs
#################################################################
SystemName   Germanio
SystemLabel  Ge
NumberOfAtoms    2
NumberOfSpecies  1
%block ChemicalSpeciesLabel
    1     32   Ge
%endblock ChemicalSpeciesLabel
LatticeConstant  4.0  Ang
%block LatticeParameters
1.0    1.0	100.	90.	90.	120.
%endblock LatticeParameters
AtomicCoordinatesFormat Ang
%block AtomicCoordinatesAndAtomicSpecies
2.000000     1.15470053   0.000000       1
2.000000    -1.15470053    0.000000       1
%endblock AtomicCoordinatesAndAtomicSpecies
BandLinesScale pi/a
%block BandLines
 1    0.00000     0.000         0.0000   $\Gamma$
 35   1.333333      0.000       0.0000   X
 35   0.6666666	  1.1547005     0.0000   K
 35   0.00000	  1.1547005     0.0000   M
 35   0.00000     0.0000        0.0000   $\Gamma$
%endblock BandLines
xc.functional         GGA
xc.authors            PBE
SpinPolarized         True
%block kgrid_Monkhorst_Pack
  7   0   0    0.5
  0   7   0    0.5
  0   0   1    0.5
%endblock kgrid_Monkhorst_Pack
MaxSCFIterations    300
DM.MixingWeight       0.20
DM.NumberPulay         4
DM.Tolerance          1.d-5
# Aquí va la base del germanio
PAO.EnergyShift 0.02 eV
